 Mg O
1.0
   1.046114738458203E+01   0.000000000000000E+00   0.000000000000000E+00
   0.000000000000000E+00   1.046114738458203E+01   0.000000000000000E+00
   0.000000000000000E+00   0.000000000000000E+00   1.046114738458203E+01
 Mg O
 32 32
Cartesian
  -1.318566850330038E-02  -3.997667326648261E-01   3.563369277881372E-03
   5.335449609509958E-02   1.032299898947698E-01   5.613322783645599E+00
  -8.047138737748206E-02   5.254245879838632E+00  -3.911061024201149E-01
  -2.437030732539236E-02   5.203367368272162E+00   4.832244802986899E+00
   5.253786907547669E+00   7.012886844185143E-02   3.931196871800158E-01
   5.303239040067242E+00  -3.855383186318901E-01   5.152599644691476E+00
   5.174257396699005E+00   4.883633413718893E+00   1.909474219650414E-01
   5.344399284541297E+00   5.164898923795652E+00   4.852776710656756E+00
   3.772455071569987E-01   2.715357200209025E+00   2.702875381739282E+00
   3.564629634862145E-01   2.576793787140343E+00   7.668512180476683E+00
  -2.297619581553531E-01   7.696760920622020E+00   2.906797989246743E+00
   3.727383907090958E-01   7.916691973816421E+00   7.719175891167736E+00
   5.446952395688526E+00   2.641758469022194E+00   2.279907195751684E+00
   4.963219854816718E+00   2.830587384195336E+00   7.640513018599475E+00
   5.627025174179670E+00   7.793161612232184E+00   2.622290108613449E+00
   5.014553226234587E+00   7.837556103611588E+00   8.182410972408912E+00
   2.240519605227659E+00   1.109796050746524E-01   2.530239551113303E+00
   2.439223455010775E+00  -1.132503305813836E-01   8.186706610623578E+00
   2.549228480296116E+00   5.245024894467545E+00   2.221043957741723E+00
   2.933371670624055E+00   5.174840969330205E+00   7.609818364179826E+00
   7.847628589365080E+00   1.820858370735367E-03   2.215294898138168E+00
   7.679822274097925E+00  -3.624570506949804E-02   7.483758973071993E+00
   7.468237175366123E+00   5.349777828624220E+00   2.671775513543991E+00
   8.238525098894510E+00   5.297251724414919E+00   7.808866174103325E+00
   2.664557539689903E+00   2.797821133553074E+00  -3.524962874673535E-01
   2.599567080028486E+00   2.599780907794166E+00   5.629963795860277E+00
   2.476492802899644E+00   8.210119835450865E+00   8.972947173632757E-02
   2.550936016379795E+00   7.875540846384811E+00   5.624246208513007E+00
   7.953113122545000E+00   2.275664526806412E+00   1.820812000421383E-01
   7.931837538931294E+00   2.492435810636549E+00   5.601404622042423E+00
   7.677697027914732E+00   7.539714017754285E+00  -1.949239379941573E-01
   7.692009238789232E+00   7.604115810241691E+00   4.951487211094144E+00
   3.600116224478107E-01   2.696183297002475E+00  -1.544260209331369E-01
   1.053676025930142E-02   2.647458867040217E+00   5.629138539906537E+00
   2.345661348463872E-02   7.544936086190073E+00   2.624771634333310E-01
  -2.009774474710487E-02   7.858899171677064E+00   4.831291743413654E+00
   4.968399136793239E+00   2.910643911356063E+00  -6.347209213311857E-02
   4.899484064676197E+00   2.820793396641786E+00   5.320832853537975E+00
   5.033354753563452E+00   7.927549001671808E+00  -3.382775268643077E-01
   5.410549553518590E+00   8.034024699847786E+00   4.926924325856983E+00
   4.774949099802714E-02   1.536197322030981E-01   2.249061554846182E+00
   2.169276945243248E-01   2.172814563105248E-01   7.589479680937488E+00
  -3.879184944949248E-01   5.275940599610735E+00   2.528909271804513E+00
  -1.553372785295688E-03   5.230787410063034E+00   7.445863611751197E+00
   4.881255883748661E+00   1.230747015925309E-01   2.464191887715123E+00
   5.209371332111091E+00   7.696017003684594E-02   7.453906979770827E+00
   5.115901457397181E+00   5.212667313629610E+00   2.232494944261877E+00
   4.840522278725416E+00   5.308155842256032E+00   7.888766304742306E+00
   2.951193636928099E+00   2.527551318161274E+00   2.813955175366524E+00
   2.555345554694178E+00   2.979461982887043E+00   7.691641501484423E+00
   2.601364295525078E+00   7.920214904115414E+00   3.008068707855939E+00
   2.426466574286653E+00   7.555551702531024E+00   8.046029678741272E+00
   7.649512179484702E+00   2.494536357983336E+00   2.942191482921320E+00
   7.931940516247501E+00   2.633921276464698E+00   8.236043822838532E+00
   7.950724690207159E+00   7.913109265620191E+00   2.995393565851438E+00
   8.114418872766764E+00   7.567150884691087E+00   7.744878609504331E+00
   2.452378380157233E+00   3.548146550782067E-01  -8.699075957295443E-02
   2.773805318208052E+00   3.949646463309538E-02   5.595692745883730E+00
   2.800047738826336E+00   5.166578127003858E+00  -3.489526904314709E-01
   2.849864219077569E+00   5.489768410354787E+00   5.424974191868899E+00
   8.198596236370866E+00  -1.552543894642819E-01  -1.071149007134045E-01
   8.152409798444607E+00  -1.480672502980616E-01   5.440582360154187E+00
   8.177321528951337E+00   5.082700683955660E+00  -1.681284781730630E-01
   7.617474529091063E+00   5.003135515145781E+00   4.993694595889255E+00
